This is Ipopt version 3.12.13, running with linear solver ma57.

Number of nonzeros in equality constraint Jacobian...:        0
Number of nonzeros in inequality constraint Jacobian.:    21744
Number of nonzeros in Lagrangian Hessian.............:       21

Total number of variables............................:        6
                     variables with only lower bounds:        0
                variables with lower and upper bounds:        6
                     variables with only upper bounds:        0
Total number of equality constraints.................:        0
Total number of inequality constraints...............:     3624
        inequality constraints with only lower bounds:        0
   inequality constraints with lower and upper bounds:        0
        inequality constraints with only upper bounds:     3624

iter    objective    inf_pr   inf_du lg(mu)  ||d||  lg(rg) alpha_du alpha_pr  ls
   0  1.4527893e+01 4.78e-04 9.18e-01   0.0 0.00e+00    -  0.00e+00 0.00e+00   0
   1  1.4531078e+01 4.78e-04 8.87e+01  -0.0 7.23e-01    -  9.90e-01 7.79e-02h  3
   2  1.4531228e+01 4.78e-04 8.60e+03   1.9 3.32e+00    -  9.98e-01 2.00e-04h  9
   3  1.4531291e+01 4.78e-04 5.42e+02   0.1 9.66e-03    -  1.00e+00 9.41e-01h  1
   4  1.4530461e+01 4.78e-04 4.12e+04  -1.2 4.08e-03    -  1.00e+00 1.60e-01h  1
   5  1.4530260e+01 4.78e-04 3.00e+07  -1.8 7.95e-02    -  1.00e+00 1.90e-03h  1
   6  1.4530257e+01 4.78e-04 1.57e+12  -2.3 1.29e-01    -  1.00e+00 1.90e-05h  1
   7  1.4529092e+01 4.78e-04 1.56e+10  -0.2 3.34e+00    -  9.90e-01 6.28e-03f  4
   8  1.4583368e+01 4.78e-04 1.27e+08   1.8 2.85e+00    -  9.92e-01 2.65e-02f  2
   9r 1.4583368e+01 4.78e-04 1.00e+03   1.7 0.00e+00    -  0.00e+00 2.03e-07R  2
iter    objective    inf_pr   inf_du lg(mu)  ||d||  lg(rg) alpha_du alpha_pr  ls
  10r 1.4583321e+01 4.78e-04 1.45e+01  -4.3 8.84e-02    -  9.88e-01 7.34e-01f  1
  11  1.4582037e+01 4.78e-04 1.25e+09   1.7 2.04e+01    -  9.90e-01 7.99e-05h  1
  12r 1.4582037e+01 4.78e-04 1.00e+03   1.7 0.00e+00    -  0.00e+00 4.00e-07R  2
  13r 1.4559695e+01 4.78e-04 4.66e+01   1.4 3.81e-02    -  9.93e-01 1.00e+00f  1
  14r 1.4559725e+01 4.78e-04 1.89e+01  -4.3 4.08e-02    -  9.90e-01 8.51e-01f  1
  15  1.4548742e+01 4.78e-04 1.22e+04   1.7 8.93e+00    -  9.90e-01 2.12e-03h  4
  16  1.4545173e+01 4.78e-04 2.98e+03   1.7 5.35e-03    -  9.95e-01 8.83e-01h  1
  17  1.4544921e+01 4.78e-04 1.44e+06   1.7 2.08e-02    -  1.00e+00 7.52e-02h  1
  18  1.4544922e+01 4.78e-04 2.04e+09   1.7 2.42e-03    -  1.00e+00 8.14e-04h  1
  19r 1.4544922e+01 4.78e-04 1.00e+03   1.7 0.00e+00    -  0.00e+00 2.54e-07R  6
iter    objective    inf_pr   inf_du lg(mu)  ||d||  lg(rg) alpha_du alpha_pr  ls
  20r 1.4544937e+01 4.78e-04 5.08e+00  -0.4 4.90e-02    -  9.95e-01 9.89e-01f  1
  21r 1.4545202e+01 4.78e-04 1.59e+01  -1.0 1.21e-03    -  1.00e+00 9.38e-01f  1
  22  1.4545089e+01 4.78e-04 5.08e+04  -0.0 4.97e-02    -  9.90e-01 2.39e-03h  5
  23  1.4545386e+01 4.78e-04 5.78e+06   1.9 1.66e-01    -  9.98e-01 2.25e-03h  5
  24  1.4545384e+01 4.78e-04 1.64e+08   0.1 4.95e-04    -  1.00e+00 3.39e-02h  1
  25  1.4545382e+01 4.78e-04 4.71e+11  -1.2 4.94e-03    -  1.00e+00 3.51e-04h  1
  26  1.4593552e+01 4.78e-04 4.54e+09   1.6 9.26e-01    -  9.90e-01 7.01e-02f  2
  27r 1.4593552e+01 4.78e-04 1.00e+03   1.6 0.00e+00    -  0.00e+00 4.40e-07R  4
  28r 1.4591943e+01 4.78e-04 3.19e+01   0.1 9.29e-02    -  9.81e-01 6.39e-01f  1
  29  1.4520270e+01 4.78e-04 4.56e+04   1.6 1.86e+01    -  9.90e-01 4.83e-03f  2
iter    objective    inf_pr   inf_du lg(mu)  ||d||  lg(rg) alpha_du alpha_pr  ls
  30  1.4554691e+01 4.78e-04 6.35e+04   1.9 9.14e-02    -  9.98e-01 6.23e-01h  1
  31  1.4554438e+01 4.78e-04 1.95e+07   1.9 3.63e-02    -  1.00e+00 1.65e-02h  1
  32  1.4554435e+01 4.78e-04 1.18e+11   1.9 3.44e-02    -  1.00e+00 1.68e-04h  1
  33  1.4540107e+01 4.78e-04 1.16e+09   1.9 3.30e-02    -  9.90e-01 1.00e+00f  1
  34r 1.4540107e+01 4.78e-04 1.00e+03   1.9 0.00e+00    -  0.00e+00 3.84e-07R  4
  35r 1.4540107e+01 4.78e-04 1.04e+01  -4.1 9.02e-02    -  9.90e-01 9.28e-01f  1
  36  1.4540724e+01 4.78e-04 1.05e+09   1.9 1.24e+01    -  9.90e-01 1.55e-04h  1
  37r 1.4540724e+01 4.78e-04 1.00e+03   1.9 0.00e+00    -  0.00e+00 3.87e-07R  3
  38r 1.4542784e+01 4.78e-04 6.20e+00   1.4 6.59e-02    -  9.93e-01 1.00e+00f  1
  39r 1.4542782e+01 4.78e-04 9.35e+00  -4.3 4.06e-02    -  9.90e-01 8.93e-01f  1
iter    objective    inf_pr   inf_du lg(mu)  ||d||  lg(rg) alpha_du alpha_pr  ls
  40  1.4543486e+01 4.78e-04 2.78e+04   1.9 7.43e+00    -  9.90e-01 2.97e-04h  7
  41  1.4545856e+01 4.78e-04 9.24e+03   1.9 1.02e-02    -  9.98e-01 8.47e-01h  1
  42  1.4545824e+01 4.78e-04 3.64e+06   1.9 2.95e-03    -  1.00e+00 5.52e-02h  1
  43  1.4545824e+01 4.78e-04 6.89e+09   1.9 2.79e-03    -  1.00e+00 5.84e-04h  1
  44r 1.4545824e+01 4.78e-04 1.00e+03   1.9 0.00e+00    -  0.00e+00 3.65e-07R  5
  45r 1.4545824e+01 4.78e-04 1.35e+01  -4.1 7.98e-02    -  9.86e-01 9.86e-01f  1
  46r 1.4545820e+01 4.78e-04 1.96e+02  -1.9 1.33e-03    -  1.00e+00 6.46e-01f  1
  47r 1.4545260e+01 4.78e-04 1.86e+02  -1.6 4.97e-03    -  1.00e+00 7.02e-01f  1
  48r 1.4541816e+01 4.78e-04 3.10e+00  -1.6 2.01e-02    -  1.00e+00 9.93e-01f  1
  49r 1.4542080e+01 4.78e-04 9.77e+01  -2.8 9.43e-03    -  1.00e+00 6.97e-01f  1
iter    objective    inf_pr   inf_du lg(mu)  ||d||  lg(rg) alpha_du alpha_pr  ls
  50r 1.4543621e+01 4.78e-04 4.32e+01  -3.3 8.65e-03    -  1.00e+00 8.99e-01f  1
  51  1.4543609e+01 4.78e-04 1.88e+06  -0.0 6.25e-02    -  9.90e-01 2.43e-04h  4
  52  1.4543612e+01 4.78e-04 1.01e+09   2.1 1.37e+00    -  1.00e+00 1.33e-05h  8
  53  1.4543615e+01 4.78e-04 5.29e+11   2.0 8.40e-03    -  1.00e+00 1.69e-03h  1
  54  1.4543615e+01 4.78e-04 2.58e+16   2.0 1.04e-02    -  1.00e+00 1.69e-05h  1
  55  1.4543615e+01 4.78e-04 2.57e+14   2.0 1.04e-02    -  9.90e-01 3.05e-05f 16
  56  1.4546293e+01 4.78e-04 2.14e+12   2.0 1.04e-02    -  9.92e-01 1.00e+00f  1
  57  1.4543383e+01 4.78e-04 1.04e+04   2.0 2.10e-02    -  1.00e+00 5.00e-01h  2
  58  1.4543896e+01 4.78e-04 2.24e+01   1.3 5.08e-03    -  1.00e+00 9.99e-01h  1
  59  1.4544014e+01 4.78e-04 1.52e+00   0.6 1.61e-03    -  1.00e+00 1.00e+00h  1
iter    objective    inf_pr   inf_du lg(mu)  ||d||  lg(rg) alpha_du alpha_pr  ls
  60  1.4542670e+01 4.78e-04 1.18e+04  -0.1 1.48e-03    -  7.65e-01 1.00e+00h  1
  61  1.4555986e+01 4.78e-04 1.79e+01   0.8 2.49e-02    -  1.00e+00 1.00e+00f  1
  62  1.4542189e+01 4.78e-04 1.38e+01   0.7 3.20e-02    -  1.00e+00 1.00e+00h  1
  63  1.4541723e+01 4.78e-04 1.53e-05   0.0 6.20e-03    -  1.00e+00 1.00e+00h  1
  64  1.4534748e+01 4.78e-04 1.42e+04  -6.0 5.73e-03    -  6.94e-01 9.99e-01h  1
  65  1.4664882e+01 4.78e-04 1.09e+06   1.2 5.54e-01    -  1.00e+00 2.56e-01f  1
  66  1.4568204e+01 4.78e-04 1.22e-04   1.1 1.04e-01    -  1.00e+00 1.00e+00f  1
  67  1.4561430e+01 4.78e-04 2.67e-05   0.4 1.15e-02    -  1.00e+00 1.00e+00h  1
  68  1.4553991e+01 4.78e-04 7.63e-06  -0.3 7.45e-03    -  1.00e+00 1.00e+00h  1
  69  1.4535021e+01 4.78e-04 1.15e+05  -1.0 1.44e-02    -  3.30e-01 1.00e+00H  1
iter    objective    inf_pr   inf_du lg(mu)  ||d||  lg(rg) alpha_du alpha_pr  ls
  70  1.4515385e+01 4.78e-04 1.91e-06  -1.2 1.62e-02    -  1.00e+00 1.00e+00h  1
  71  1.4417948e+01 4.78e-04 1.06e+04  -2.0 7.33e-02    -  8.89e-01 1.00e+00h  1
  72  1.4439102e+01 4.78e-04 4.77e-07  -1.3 2.28e-02    -  1.00e+00 1.00e+00f  1
  73  1.4406000e+01 4.78e-04 9.54e-07  -1.6 2.06e-02    -  1.00e+00 1.00e+00h  1
  74  1.4348107e+01 4.78e-04 9.11e+02  -2.3 3.62e-02    -  9.92e-01 1.00e+00h  1
  75  1.4295228e+01 4.78e-04 2.15e-09  -3.7 6.54e-02    -  1.00e+00 1.00e+00h  1
  76  1.4293220e+01 4.78e-04 1.73e-11  -5.8 3.95e-03    -  1.00e+00 1.00e+00h  1
  77  1.4293205e+01 4.78e-04 1.41e-13  -7.8 1.97e-03    -  1.00e+00 1.00e+00h  1
  78  1.4293205e+01 4.78e-04 3.69e+06  -9.8 1.97e-03    -  1.59e-01 1.00e+00h  1
  79  1.4293212e+01 4.78e-04 1.70e+07  -5.9 2.85e-05    -  9.94e-05 1.00e+00f  1
iter    objective    inf_pr   inf_du lg(mu)  ||d||  lg(rg) alpha_du alpha_pr  ls
  80  1.4293217e+01 4.78e-04 1.21e+07  -5.7 6.28e-05    -  3.47e-01 1.00e+00h  1
  81  1.4293208e+01 4.78e-04 5.49e-12  -6.3 6.36e-05    -  1.00e+00 1.00e+00h  1
  82  1.4293205e+01 4.78e-04 4.43e-14  -8.4 4.00e-06    -  1.00e+00 1.00e+00h  1
  83  1.4293205e+01 4.78e-04 4.55e-16 -10.3 3.23e-08    -  1.00e+00 1.00e+00h  1
  84r 1.4293205e+01 4.78e-04 1.00e+03  -3.3 0.00e+00    -  0.00e+00 4.77e-07R 22
  85r 1.4293229e+01 4.78e-04 9.94e+02  -2.7 1.52e-02    -  1.00e+00 1.95e-03f 10
  86r 1.4489505e+01 4.78e-04 1.76e-03  -3.1 1.03e-01    -  1.00e+00 1.00e+00f  1
  87r 1.4458037e+01 4.78e-04 2.06e+00  -4.6 1.65e-02    -  9.25e-01 9.98e-01f  1
  88r 1.4436057e+01 4.78e-04 2.75e-04  -5.9 1.16e-02    -  1.00e+00 1.00e+00f  1
  89r 1.4409527e+01 4.78e-04 4.98e-05  -7.0 1.39e-02    -  1.00e+00 1.00e+00f  1
iter    objective    inf_pr   inf_du lg(mu)  ||d||  lg(rg) alpha_du alpha_pr  ls
  90r 1.4384176e+01 4.78e-04 1.24e-05  -8.5 1.33e-02    -  1.00e+00 1.00e+00f  1

Number of Iterations....: 90

                                   (scaled)                 (unscaled)
Objective...............:   1.4370557884797240e+01    1.4370557884797240e+01
Dual infeasibility......:   7.4362407802057706e-01    7.4362407802057706e-01
Constraint violation....:   4.7772904268491499e-04    4.7772904268491499e-04
Complementarity.........:   9.2614547001828834e-08    9.2614547001828834e-08
Overall NLP error.......:   7.4362407802057706e-01    7.4362407802057706e-01


Number of objective function evaluations             = 236
Number of objective gradient evaluations             = 78
Number of equality constraint evaluations            = 0
Number of inequality constraint evaluations          = 236
Number of equality constraint Jacobian evaluations   = 0
Number of inequality constraint Jacobian evaluations = 100
Number of Lagrangian Hessian evaluations             = 91
Total CPU secs in IPOPT (w/o function evaluations)   =      0.236
Total CPU secs in NLP function evaluations           =      0.283

EXIT: Converged to a point of local infeasibility. Problem may be infeasible.
